3 3 2
25 1 38 0 61 1 92 2 45 0 61 1 3 0 5 1 82 0 14 2 25 1 76 0 77 2 58 1 79 0 30 2 6 0 65 2 43 0 51 2 62 0 35 1 85 0 80 2 72 1 34 
25 0 88 1 25 2 69 0 44 1 70 0 55 2 89 0 23 2 20 1 97 0 99 2 96 0 43 1 50 2 15 1 83 2 26 0 90 1 46 2 9 1 89 0 17 1 53 0 84 2 86 
25 1 31 0 6 1 87 2 27 0 39 1 16 2 81 0 88 2 31 0 56 1 33 2 5 1 11 2 35 1 92 0 14 2 40 0 25 1 17 2 64 0 73 1 75 0 91 1 35 2 84 

-------------
